\ Model prob_85
\ LP format - for model browsing. Use MPS format to capture full model detail.
Minimize
  151000 open[0] + 192000 open[1] + 114000 open[2] + 171000 open[3]
   + 160000 open[4] + 120000 open[5] + 182000 open[6] + 3 x[0,0] + 3 x[0,1]
   + 5 x[0,2] + 4 x[0,3] + 3 x[0,4] + 5 x[0,5] + 2 x[1,0] + 4 x[1,1]
   + 2 x[1,2] + 4 x[1,3] + 5 x[1,4] + x[1,5] + 4 x[2,0] + 2 x[2,1]
   + 5 x[2,2] + 4 x[2,3] + x[2,4] + x[2,5] + 3 x[3,0] + 3 x[3,1] + 2 x[3,2]
   + 4 x[3,3] + 4 x[3,4] + 3 x[3,5] + 4 x[4,0] + 4 x[4,1] + x[4,2]
   + 3 x[4,3] + 5 x[4,4] + 3 x[4,5] + 5 x[5,0] + x[5,1] + 2 x[5,2]
   + 4 x[5,3] + x[5,4] + 4 x[5,5] + 2 x[6,0] + 2 x[6,1] + x[6,2] + 2 x[6,3]
   + 5 x[6,4] + 2 x[6,5]
Subject To
 R0: x[0,0] + x[1,0] + x[2,0] + x[3,0] + x[4,0] + x[5,0] + x[6,0] >= 739
 R1: x[0,1] + x[1,1] + x[2,1] + x[3,1] + x[4,1] + x[5,1] + x[6,1] >= 491
 R2: x[0,2] + x[1,2] + x[2,2] + x[3,2] + x[4,2] + x[5,2] + x[6,2] >= 766
 R3: x[0,3] + x[1,3] + x[2,3] + x[3,3] + x[4,3] + x[5,3] + x[6,3] >= 854
 R4: x[0,4] + x[1,4] + x[2,4] + x[3,4] + x[4,4] + x[5,4] + x[6,4] >= 827
 R5: x[0,5] + x[1,5] + x[2,5] + x[3,5] + x[4,5] + x[5,5] + x[6,5] >= 908
 R6: - 1575 open[0] + x[0,0] + x[0,1] + x[0,2] + x[0,3] + x[0,4] + x[0,5]
   <= 0
 R7: - 834 open[1] + x[1,0] + x[1,1] + x[1,2] + x[1,3] + x[1,4] + x[1,5]
   <= 0
 R8: - 1005 open[2] + x[2,0] + x[2,1] + x[2,2] + x[2,3] + x[2,4] + x[2,5]
   <= 0
 R9: - 1904 open[3] + x[3,0] + x[3,1] + x[3,2] + x[3,3] + x[3,4] + x[3,5]
   <= 0
 R10: - 1825 open[4] + x[4,0] + x[4,1] + x[4,2] + x[4,3] + x[4,4] + x[4,5]
   <= 0
 R11: - 1821 open[5] + x[5,0] + x[5,1] + x[5,2] + x[5,3] + x[5,4] + x[5,5]
   <= 0
 R12: - 1365 open[6] + x[6,0] + x[6,1] + x[6,2] + x[6,3] + x[6,4] + x[6,5]
   <= 0
Bounds
Binaries
 open[0] open[1] open[2] open[3] open[4] open[5] open[6]
End
